T=29;
V=52;
graph=[{2},{1,3,9},{2,4,10},{3,5,11},{4,6},{5,7,12},{6,8,13},{7},{2,10,15},{3,9,11,16},{4,10,17},{6,13,18},{7,12,19},{15},{9,14,16,20},{10,15,17,21},{11,16,22},{12,19,24},{13,18,25},{15,21,27},{16,20,22,28},{17,21,23,29},{22,24,30},{18,23,25,31},{19,24,26,32},{25,33},{20,28,34},{21,27,29},{22,28,30},{23,29,31,35},{24,30,32,36},{25,31,33,37},{26,32,38},{27},{30,36,42},{31,35,37,43},{32,36,38,44},{33,37,45},{46},{41,48},{40,42,49},{35,41,43},{36,42,44,50},{37,43,45,51},{38,44,52},{39,47},{46,48},{40,47,49},{41,48},{43,51},{44,50,52},{45,51}];
A=30;
start=[36,32,43,35,10,42,14,34,45,9,37,19,27,31,28,49,7,51,3,6,46,2,11,44,26,18,41,38,50,48];
end=[45,13,31,22,24,33,3,34,26,17,6,18,28,36,16,42,10,52,20,25,39,1,35,37,38,19,47,50,51,44];
distances=[|0,1,2,3,4,5,6,7,2,3,4,6,7,4,3,4,5,7,8,4,5,6,7,8,9,10,5,6,7,8,9,10,11,6,9,10,11,12,16,12,11,10,11,12,13,15,14,13,12,12,13,14
|1,0,1,2,3,4,5,6,1,2,3,5,6,3,2,3,4,6,7,3,4,5,6,7,8,9,4,5,6,7,8,9,10,5,8,9,10,11,15,11,10,9,10,11,12,14,13,12,11,11,12,13
|2,1,0,1,2,3,4,5,2,1,2,4,5,4,3,2,3,5,6,4,3,4,5,6,7,8,5,4,5,6,7,8,9,6,7,8,9,10,14,10,9,8,9,10,11,13,12,11,10,10,11,12
|3,2,1,0,1,2,3,4,3,2,1,3,4,5,4,3,2,4,5,5,4,3,4,5,6,7,6,5,4,5,6,7,8,7,6,7,8,9,13,9,8,7,8,9,10,12,11,10,9,9,10,11
|4,3,2,1,0,1,2,3,4,3,2,2,3,6,5,4,3,3,4,6,5,4,5,4,5,6,7,6,5,6,5,6,7,8,7,6,7,8,14,10,9,8,7,8,9,13,12,11,10,8,9,10
|5,4,3,2,1,0,1,2,5,4,3,1,2,7,6,5,4,2,3,7,6,5,4,3,4,5,8,7,6,5,4,5,6,9,6,5,6,7,13,9,8,7,6,7,8,12,11,10,9,7,8,9
|6,5,4,3,2,1,0,1,6,5,4,2,1,8,7,6,5,3,2,8,7,6,5,4,3,4,9,8,7,6,5,4,5,10,7,6,5,6,14,10,9,8,7,6,7,13,12,11,10,8,7,8
|7,6,5,4,3,2,1,0,7,6,5,3,2,9,8,7,6,4,3,9,8,7,6,5,4,5,10,9,8,7,6,5,6,11,8,7,6,7,15,11,10,9,8,7,8,14,13,12,11,9,8,9
|2,1,2,3,4,5,6,7,0,1,2,6,7,2,1,2,3,7,8,2,3,4,5,6,7,8,3,4,5,6,7,8,9,4,7,8,9,10,14,10,9,8,9,10,11,13,12,11,10,10,11,12
|3,2,1,2,3,4,5,6,1,0,1,5,6,3,2,1,2,6,7,3,2,3,4,5,6,7,4,3,4,5,6,7,8,5,6,7,8,9,13,9,8,7,8,9,10,12,11,10,9,9,10,11
|4,3,2,1,2,3,4,5,2,1,0,4,5,4,3,2,1,5,6,4,3,2,3,4,5,6,5,4,3,4,5,6,7,6,5,6,7,8,12,8,7,6,7,8,9,11,10,9,8,8,9,10
|6,5,4,3,2,1,2,3,6,5,4,0,1,8,7,6,5,1,2,6,5,4,3,2,3,4,7,6,5,4,3,4,5,8,5,4,5,6,12,8,7,6,5,6,7,11,10,9,8,6,7,8
|7,6,5,4,3,2,1,2,7,6,5,1,0,9,8,7,6,2,1,7,6,5,4,3,2,3,8,7,6,5,4,3,4,9,6,5,4,5,13,9,8,7,6,5,6,12,11,10,9,7,6,7
|4,3,4,5,6,7,8,9,2,3,4,8,9,0,1,2,3,7,8,2,3,4,5,6,7,8,3,4,5,6,7,8,9,4,7,8,9,10,14,10,9,8,9,10,11,13,12,11,10,10,11,12
|3,2,3,4,5,6,7,8,1,2,3,7,8,1,0,1,2,6,7,1,2,3,4,5,6,7,2,3,4,5,6,7,8,3,6,7,8,9,13,9,8,7,8,9,10,12,11,10,9,9,10,11
|4,3,2,3,4,5,6,7,2,1,2,6,7,2,1,0,1,5,6,2,1,2,3,4,5,6,3,2,3,4,5,6,7,4,5,6,7,8,12,8,7,6,7,8,9,11,10,9,8,8,9,10
|5,4,3,2,3,4,5,6,3,2,1,5,6,3,2,1,0,4,5,3,2,1,2,3,4,5,4,3,2,3,4,5,6,5,4,5,6,7,11,7,6,5,6,7,8,10,9,8,7,7,8,9
|7,6,5,4,3,2,3,4,7,6,5,1,2,7,6,5,4,0,1,5,4,3,2,1,2,3,6,5,4,3,2,3,4,7,4,3,4,5,11,7,6,5,4,5,6,10,9,8,7,5,6,7
|8,7,6,5,4,3,2,3,8,7,6,2,1,8,7,6,5,1,0,6,5,4,3,2,1,2,7,6,5,4,3,2,3,8,5,4,3,4,12,8,7,6,5,4,5,11,10,9,8,6,5,6
|4,3,4,5,6,7,8,9,2,3,4,6,7,2,1,2,3,5,6,0,1,2,3,4,5,6,1,2,3,4,5,6,7,2,5,6,7,8,12,8,7,6,7,8,9,11,10,9,8,8,9,10
|5,4,3,4,5,6,7,8,3,2,3,5,6,3,2,1,2,4,5,1,0,1,2,3,4,5,2,1,2,3,4,5,6,3,4,5,6,7,11,7,6,5,6,7,8,10,9,8,7,7,8,9
|6,5,4,3,4,5,6,7,4,3,2,4,5,4,3,2,1,3,4,2,1,0,1,2,3,4,3,2,1,2,3,4,5,4,3,4,5,6,10,6,5,4,5,6,7,9,8,7,6,6,7,8
|7,6,5,4,5,4,5,6,5,4,3,3,4,5,4,3,2,2,3,3,2,1,0,1,2,3,4,3,2,1,2,3,4,5,2,3,4,5,9,5,4,3,4,5,6,8,7,6,5,5,6,7
|8,7,6,5,4,3,4,5,6,5,4,2,3,6,5,4,3,1,2,4,3,2,1,0,1,2,5,4,3,2,1,2,3,6,3,2,3,4,10,6,5,4,3,4,5,9,8,7,6,4,5,6
|9,8,7,6,5,4,3,4,7,6,5,3,2,7,6,5,4,2,1,5,4,3,2,1,0,1,6,5,4,3,2,1,2,7,4,3,2,3,11,7,6,5,4,3,4,10,9,8,7,5,4,5
|10,9,8,7,6,5,4,5,8,7,6,4,3,8,7,6,5,3,2,6,5,4,3,2,1,0,7,6,5,4,3,2,1,8,5,4,3,2,12,8,7,6,5,4,3,11,10,9,8,6,5,4
|5,4,5,6,7,8,9,10,3,4,5,7,8,3,2,3,4,6,7,1,2,3,4,5,6,7,0,1,2,3,4,5,6,1,4,5,6,7,11,7,6,5,6,7,8,10,9,8,7,7,8,9
|6,5,4,5,6,7,8,9,4,3,4,6,7,4,3,2,3,5,6,2,1,2,3,4,5,6,1,0,1,2,3,4,5,2,3,4,5,6,10,6,5,4,5,6,7,9,8,7,6,6,7,8
|7,6,5,4,5,6,7,8,5,4,3,5,6,5,4,3,2,4,5,3,2,1,2,3,4,5,2,1,0,1,2,3,4,3,2,3,4,5,9,5,4,3,4,5,6,8,7,6,5,5,6,7
|8,7,6,5,6,5,6,7,6,5,4,4,5,6,5,4,3,3,4,4,3,2,1,2,3,4,3,2,1,0,1,2,3,4,1,2,3,4,8,4,3,2,3,4,5,7,6,5,4,4,5,6
|9,8,7,6,5,4,5,6,7,6,5,3,4,7,6,5,4,2,3,5,4,3,2,1,2,3,4,3,2,1,0,1,2,5,2,1,2,3,9,5,4,3,2,3,4,8,7,6,5,3,4,5
|10,9,8,7,6,5,4,5,8,7,6,4,3,8,7,6,5,3,2,6,5,4,3,2,1,2,5,4,3,2,1,0,1,6,3,2,1,2,10,6,5,4,3,2,3,9,8,7,6,4,3,4
|11,10,9,8,7,6,5,6,9,8,7,5,4,9,8,7,6,4,3,7,6,5,4,3,2,1,6,5,4,3,2,1,0,7,4,3,2,1,11,7,6,5,4,3,2,10,9,8,7,5,4,3
|6,5,6,7,8,9,10,11,4,5,6,8,9,4,3,4,5,7,8,2,3,4,5,6,7,8,1,2,3,4,5,6,7,0,5,6,7,8,12,8,7,6,7,8,9,11,10,9,8,8,9,10
|9,8,7,6,7,6,7,8,7,6,5,5,6,7,6,5,4,4,5,5,4,3,2,3,4,5,4,3,2,1,2,3,4,5,0,1,2,3,7,3,2,1,2,3,4,6,5,4,3,3,4,5
|10,9,8,7,6,5,6,7,8,7,6,4,5,8,7,6,5,3,4,6,5,4,3,2,3,4,5,4,3,2,1,2,3,6,1,0,1,2,8,4,3,2,1,2,3,7,6,5,4,2,3,4
|11,10,9,8,7,6,5,6,9,8,7,5,4,9,8,7,6,4,3,7,6,5,4,3,2,3,6,5,4,3,2,1,2,7,2,1,0,1,9,5,4,3,2,1,2,8,7,6,5,3,2,3
|12,11,10,9,8,7,6,7,10,9,8,6,5,10,9,8,7,5,4,8,7,6,5,4,3,2,7,6,5,4,3,2,1,8,3,2,1,0,10,6,5,4,3,2,1,9,8,7,6,4,3,2
|16,15,14,13,14,13,14,15,14,13,12,12,13,14,13,12,11,11,12,12,11,10,9,10,11,12,11,10,9,8,9,10,11,12,7,8,9,10,0,4,5,6,7,8,9,1,2,3,4,8,9,10
|12,11,10,9,10,9,10,11,10,9,8,8,9,10,9,8,7,7,8,8,7,6,5,6,7,8,7,6,5,4,5,6,7,8,3,4,5,6,4,0,1,2,3,4,5,3,2,1,2,4,5,6
|11,10,9,8,9,8,9,10,9,8,7,7,8,9,8,7,6,6,7,7,6,5,4,5,6,7,6,5,4,3,4,5,6,7,2,3,4,5,5,1,0,1,2,3,4,4,3,2,1,3,4,5
|10,9,8,7,8,7,8,9,8,7,6,6,7,8,7,6,5,5,6,6,5,4,3,4,5,6,5,4,3,2,3,4,5,6,1,2,3,4,6,2,1,0,1,2,3,5,4,3,2,2,3,4
|11,10,9,8,7,6,7,8,9,8,7,5,6,9,8,7,6,4,5,7,6,5,4,3,4,5,6,5,4,3,2,3,4,7,2,1,2,3,7,3,2,1,0,1,2,6,5,4,3,1,2,3
|12,11,10,9,8,7,6,7,10,9,8,6,5,10,9,8,7,5,4,8,7,6,5,4,3,4,7,6,5,4,3,2,3,8,3,2,1,2,8,4,3,2,1,0,1,7,6,5,4,2,1,2
|13,12,11,10,9,8,7,8,11,10,9,7,6,11,10,9,8,6,5,9,8,7,6,5,4,3,8,7,6,5,4,3,2,9,4,3,2,1,9,5,4,3,2,1,0,8,7,6,5,3,2,1
|15,14,13,12,13,12,13,14,13,12,11,11,12,13,12,11,10,10,11,11,10,9,8,9,10,11,10,9,8,7,8,9,10,11,6,7,8,9,1,3,4,5,6,7,8,0,1,2,3,7,8,9
|14,13,12,11,12,11,12,13,12,11,10,10,11,12,11,10,9,9,10,10,9,8,7,8,9,10,9,8,7,6,7,8,9,10,5,6,7,8,2,2,3,4,5,6,7,1,0,1,2,6,7,8
|13,12,11,10,11,10,11,12,11,10,9,9,10,11,10,9,8,8,9,9,8,7,6,7,8,9,8,7,6,5,6,7,8,9,4,5,6,7,3,1,2,3,4,5,6,2,1,0,1,5,6,7
|12,11,10,9,10,9,10,11,10,9,8,8,9,10,9,8,7,7,8,8,7,6,5,6,7,8,7,6,5,4,5,6,7,8,3,4,5,6,4,2,1,2,3,4,5,3,2,1,0,4,5,6
|12,11,10,9,8,7,8,9,10,9,8,6,7,10,9,8,7,5,6,8,7,6,5,4,5,6,7,6,5,4,3,4,5,8,3,2,3,4,8,4,3,2,1,2,3,7,6,5,4,0,1,2
|13,12,11,10,9,8,7,8,11,10,9,7,6,11,10,9,8,6,5,9,8,7,6,5,4,5,8,7,6,5,4,3,4,9,4,3,2,3,9,5,4,3,2,1,2,8,7,6,5,1,0,1
|14,13,12,11,10,9,8,9,12,11,10,8,7,12,11,10,9,7,6,10,9,8,7,6,5,4,9,8,7,6,5,4,3,10,5,4,3,2,10,6,5,4,3,2,1,9,8,7,6,2,1,0|];
